Optimal - objective value -966.00000000
      0 x_0                      1                      -5
     34 x_34                     1                      87
     50 x_50                     1                       0
     52 x_52                     1                       0
     53 x_53                     1                     251
     59 x_59                     1                       0
     64 x_64                     1                       2
     74 x_74                     1                       0
     82 x_82                     1                     248
     86 x_86                     1                       0
     95 x_95                     1                     -18
